#pLT is two-dimensional [i,r]=[component, individual]
#[i,*] means all data in row i.

param pLT := 
[1,*]
1  0    2  7    3  6    4  5    5  9    6  5    

[2,*]
1  3    2  4    3  3    4  6    5  3    6  4    
;